(declare-fun var0 () String)
(declare-fun var1 () String)
(declare-fun var2 () String)
(declare-fun var3 () String)
(declare-fun var4 () String)
(declare-fun var5 () String)
(declare-fun var6 () String)
(declare-fun var7 () String)
(declare-fun var8 () String)
(declare-fun var9 () String)
(declare-fun var10 () String)
(declare-fun var11 () String)
(declare-fun var12 () String)
(declare-fun var13 () String)
(declare-fun var14 () String)
(declare-fun var15 () String)
(declare-fun var16 () String)
(declare-fun var17 () String)
(declare-fun var18 () String)
(declare-fun var19 () String)
(declare-fun var20 () String)
(declare-fun var21 () String)
(declare-fun var22 () String)
(declare-fun var23 () String)
(declare-fun var24 () String)
(declare-fun var25 () String)
(declare-fun var26 () String)
(declare-fun var27 () String)
(declare-fun var28 () String)
(declare-fun var29 () String)
(declare-fun var30 () String)
(declare-fun var31 () String)
(declare-fun var32 () String)
(declare-fun var33 () String)
(declare-fun var34 () String)
(declare-fun var35 () String)
(declare-fun var36 () String)
(declare-fun var37 () String)
(declare-fun var38 () String)
(declare-fun var39 () String)
(declare-fun var40 () String)
(declare-fun var41 () String)
(declare-fun var42 () String)
(declare-fun var43 () String)
(declare-fun var44 () String)
(declare-fun var45 () String)
(declare-fun var46 () String)
(declare-fun var47 () String)
(declare-fun var48 () String)
(declare-fun var49 () String)
(declare-fun var50 () String)
(declare-fun var51 () String)
(declare-fun var52 () String)
(declare-fun var53 () String)
(declare-fun var54 () String)
(declare-fun var55 () String)
(declare-fun var56 () String)
(declare-fun var57 () String)
(declare-fun var58 () String)
(declare-fun var59 () String)
(declare-fun var60 () String)
(assert (= var0 (Concat var1 var2)))
(assert (= var2 (Concat var3 var4)))
(assert (= var4 (Concat var5 var6)))
(assert (= var6 (Concat var7 var8)))
(assert (= var8 (Concat var9 var10)))
(assert (= var10 (Concat var11 var12)))
(assert (= var12 (Concat var13 var14)))
(assert (= var14 (Concat var15 var16)))
(assert (= var16 (Concat var17 var18)))
(assert (= var18 (Concat var19 var20)))
(assert (= var20 (Concat var21 var22)))
(assert (= var22 (Concat var23 var24)))
(assert (= var24 (Concat var25 var26)))
(assert (= var26 (Concat var27 var28)))
(assert (= var28 (Concat var29 var30)))
(assert (= var30 (Concat var31 var32)))
(assert (= var32 (Concat var33 var34)))
(assert (= var34 (Concat var35 var36)))
(assert (= var36 (Concat var37 var38)))
(assert (= var38 (Concat var39 var40)))
(assert (= var40 (Concat var41 var42)))
(assert (= var42 (Concat var43 var44)))
(assert (= var44 (Concat var45 var46)))
(assert (= var46 (Concat var47 var48)))
(assert (= var48 (Concat var49 var50)))
(assert (= var50 (Concat var51 var52)))
(assert (= var52 (Concat var53 var54)))
(assert (= var54 (Concat var55 var56)))
(assert (= var56 (Concat var57 var58)))
(assert (= var58 (Concat var59 var60)))
(assert (= var0 "solution"))
(assert (= "r" (CharAt var21 505)))
(assert (= "`" (CharAt var13 293)))
(assert (= "c" (CharAt var30 862)))
(assert (= "m" (CharAt var48 592)))
(assert (= "u" (CharAt var18 192)))
(assert (= "z" (CharAt var16 513)))
(assert (= "Y" (CharAt var40 778)))
(assert (= "Y" (CharAt var5 495)))
(assert (= "[" (CharAt var17 411)))
(assert (= "c" (CharAt var9 515)))
(assert (= "4" (CharAt var22 918)))
(assert (= "J" (CharAt var40 692)))
(assert (= "^" (CharAt var7 89)))
(assert (= "_" (CharAt var15 756)))
(assert (= "k" (CharAt var54 610)))
(assert (= "R" (CharAt var20 385)))
(assert (= "E" (CharAt var37 225)))
(assert (= "6" (CharAt var5 911)))
(assert (= "K" (CharAt var47 147)))
(assert (= "/" (CharAt var50 559)))
(assert (= "p" (CharAt var43 298)))
(assert (= "M" (CharAt var19 618)))
(assert (= "w" (CharAt var38 820)))
(assert (= "m" (CharAt var0 943)))
(assert (= "t" (CharAt var55 46)))
(assert (= "T" (CharAt var23 105)))
(assert (= "<" (CharAt var18 520)))
(assert (= "B" (CharAt var21 259)))
(assert (= "x" (CharAt var54 74)))
(assert (= "s" (CharAt var19 684)))
(assert (= "x" (CharAt var15 744)))
(assert (= "p" (CharAt var10 199)))
(assert (= ">" (CharAt var51 808)))
(assert (= "%" (CharAt var57 214)))
(assert (= "2" (CharAt var35 477)))
(assert (= ";" (CharAt var9 868)))
(assert (= "^" (CharAt var42 853)))
(assert (= "c" (CharAt var35 574)))
(assert (= "+" (CharAt var28 252)))
(assert (= "4" (CharAt var7 210)))
(assert (= "3" (CharAt var1 1)))
(assert (= "s" (CharAt var22 314)))
(assert (= "Q" (CharAt var22 821)))
(assert (= ">" (CharAt var9 207)))
(assert (= "Q" (CharAt var28 492)))
(assert (= "3" (CharAt var40 636)))
(assert (= "[" (CharAt var24 750)))
(assert (= "e" (CharAt var22 893)))
(assert (= "I" (CharAt var17 440)))
(assert (= "L" (CharAt var43 497)))
(assert (= "5" (CharAt var40 629)))
(assert (= "(" (CharAt var8 991)))
(assert (= "&" (CharAt var39 980)))
(assert (= "V" (CharAt var36 427)))
(assert (= "3" (CharAt var54 719)))
(assert (= ")" (CharAt var60 314)))
(assert (= "O" (CharAt var32 315)))
(assert (= "+" (CharAt var41 880)))
(assert (= "Y" (CharAt var14 872)))
(assert (= "-" (CharAt var20 244)))
(assert (= "b" (CharAt var39 558)))
(assert (= "f" (CharAt var5 415)))
(assert (= "N" (CharAt var46 362)))
(assert (= "n" (CharAt var52 415)))
(assert (= "[" (CharAt var60 489)))
(assert (= "Z" (CharAt var40 680)))
(assert (= "O" (CharAt var1 946)))
(assert (= "b" (CharAt var58 686)))
(assert (= "V" (CharAt var27 974)))
(assert (= "g" (CharAt var0 466)))
(assert (= "6" (CharAt var5 104)))
(assert (= "Q" (CharAt var0 161)))
(assert (= "2" (CharAt var17 4)))
(assert (= "{" (CharAt var57 616)))
(assert (= "n" (CharAt var8 390)))
(assert (= "0" (CharAt var41 582)))
(assert (= "G" (CharAt var25 339)))
(assert (= "W" (CharAt var47 497)))
(assert (= "$" (CharAt var27 930)))
(assert (= "K" (CharAt var37 215)))
(assert (= "4" (CharAt var44 703)))
(assert (= "W" (CharAt var31 367)))
(assert (= "5" (CharAt var28 900)))
(assert (= "U" (CharAt var12 321)))
(assert (= "`" (CharAt var9 666)))
(assert (= "q" (CharAt var27 1)))
(assert (= "5" (CharAt var55 599)))
(assert (= "X" (CharAt var24 531)))
(assert (= "J" (CharAt var41 743)))
(assert (= "." (CharAt var35 981)))
(assert (= "~" (CharAt var27 400)))
(assert (= ";" (CharAt var9 913)))
(assert (= "O" (CharAt var33 520)))
(assert (= "u" (CharAt var41 620)))
(assert (= "X" (CharAt var6 987)))
(assert (= "t" (CharAt var2 685)))
(assert (= "`" (CharAt var9 498)))
(assert (= "a" (CharAt var56 787)))
(assert (= "8" (CharAt var48 405)))
(assert (= "/" (CharAt var34 757)))
(assert (= "6" (CharAt var59 932)))
(assert (= "l" (CharAt var37 797)))
(assert (= "r" (CharAt var53 438)))
(assert (= "x" (CharAt var33 190)))
(assert (= "X" (CharAt var45 896)))
(assert (= "F" (CharAt var19 496)))
(assert (= ")" (CharAt var37 644)))
(assert (= "G" (CharAt var22 233)))
(assert (= "*" (CharAt var34 84)))
(assert (= "a" (CharAt var57 176)))
(assert (= "n" (CharAt var54 393)))
(assert (= "[" (CharAt var53 61)))
(assert (= "w" (CharAt var25 7)))
(assert (= "3" (CharAt var19 89)))
(assert (= "2" (CharAt var28 164)))
(assert (= "}" (CharAt var18 772)))
(assert (= "a" (CharAt var60 245)))
(assert (= "o" (CharAt var34 953)))
(assert (= "/" (CharAt var30 236)))
(assert (= "n" (CharAt var59 508)))
(assert (= "5" (CharAt var28 693)))
(assert (= "g" (CharAt var47 965)))
(assert (= "l" (CharAt var12 69)))
(assert (= ")" (CharAt var50 204)))
(assert (= "g" (CharAt var23 834)))
(assert (= "+" (CharAt var34 170)))
(assert (= "4" (CharAt var53 47)))
(assert (= "]" (CharAt var26 207)))
(assert (= "7" (CharAt var28 710)))
(assert (= "e" (CharAt var10 410)))
(assert (= "f" (CharAt var38 53)))
(assert (= ":" (CharAt var41 574)))
(assert (= "j" (CharAt var11 23)))
(assert (= "W" (CharAt var11 430)))
(assert (= "^" (CharAt var49 190)))
(assert (= "0" (CharAt var44 640)))
(assert (= "<" (CharAt var27 238)))
(assert (= "F" (CharAt var6 667)))
(assert (= "c" (CharAt var47 541)))
(assert (= "c" (CharAt var44 179)))
(assert (= "/" (CharAt var44 16)))
(assert (= "W" (CharAt var46 550)))
(assert (= "T" (CharAt var10 31)))
(assert (= "5" (CharAt var42 498)))
(assert (= "q" (CharAt var11 211)))
(assert (= "W" (CharAt var5 870)))
(assert (= "T" (CharAt var37 129)))
(assert (= "`" (CharAt var25 803)))
(assert (= "1" (CharAt var54 866)))
(assert (= "C" (CharAt var54 322)))
(assert (= "#" (CharAt var44 848)))
(assert (= "o" (CharAt var0 233)))
(assert (= "h" (CharAt var59 122)))
(assert (= "9" (CharAt var51 550)))
(assert (= "'" (CharAt var0 41)))
(assert (= "B" (CharAt var16 671)))
(assert (= "R" (CharAt var10 766)))
(assert (= "V" (CharAt var50 897)))
(assert (= "N" (CharAt var28 718)))
(assert (= "8" (CharAt var33 874)))
(assert (= "(" (CharAt var22 496)))
(assert (= "u" (CharAt var13 599)))
(assert (= "B" (CharAt var46 81)))
(assert (= "\\" (CharAt var17 995)))
(assert (= "5" (CharAt var26 70)))
(assert (= "+" (CharAt var48 134)))
(assert (= "w" (CharAt var1 523)))
(assert (= "%" (CharAt var14 78)))
(assert (= "|" (CharAt var14 649)))
(assert (= "k" (CharAt var4 242)))
(assert (= "v" (CharAt var35 299)))
(assert (= "a" (CharAt var47 108)))
(assert (= "F" (CharAt var55 564)))
(assert (= "D" (CharAt var17 714)))
(assert (= "0" (CharAt var12 67)))
(assert (= "b" (CharAt var9 151)))
(assert (= "G" (CharAt var44 723)))
(assert (= ")" (CharAt var21 897)))
(assert (= "{" (CharAt var28 745)))
(assert (= "(" (CharAt var14 381)))
(assert (= "@" (CharAt var52 657)))
(assert (= "z" (CharAt var10 202)))
(assert (= "Y" (CharAt var23 510)))
(assert (= "+" (CharAt var50 576)))
(assert (= "L" (CharAt var2 22)))
(assert (= "K" (CharAt var43 692)))
(assert (= "2" (CharAt var41 836)))
(assert (= "7" (CharAt var51 300)))
(assert (= "x" (CharAt var13 738)))
(assert (= "Q" (CharAt var21 730)))
(assert (= "j" (CharAt var15 698)))
(assert (= "$" (CharAt var38 197)))
(assert (= "<" (CharAt var37 380)))
(assert (= "S" (CharAt var20 411)))
(assert (= "}" (CharAt var28 122)))
(assert (= "L" (CharAt var24 610)))
(assert (= "'" (CharAt var51 989)))
(assert (= "d" (CharAt var28 178)))
(assert (= "D" (CharAt var42 12)))
(assert (= "s" (CharAt var24 501)))
(assert (= "d" (CharAt var7 782)))
(assert (= "M" (CharAt var35 387)))
(assert (= "s" (CharAt var53 765)))
(assert (= ";" (CharAt var11 339)))
(assert (= "i" (CharAt var36 955)))
(assert (= "i" (CharAt var25 970)))
(assert (= "'" (CharAt var27 945)))
(assert (= "i" (CharAt var58 817)))
(assert (= "'" (CharAt var4 272)))
(assert (= "#" (CharAt var54 537)))
(assert (= "A" (CharAt var3 783)))
(assert (= "h" (CharAt var1 617)))
(assert (= "K" (CharAt var47 319)))
(assert (= "6" (CharAt var17 607)))
(assert (= "Y" (CharAt var36 279)))
(assert (= "1" (CharAt var51 642)))
(assert (= "w" (CharAt var55 68)))
(assert (= "R" (CharAt var1 620)))
(assert (= ":" (CharAt var56 200)))
(assert (= ")" (CharAt var7 372)))
(assert (= "(" (CharAt var45 732)))
(assert (= "m" (CharAt var13 901)))
(assert (= "C" (CharAt var50 14)))
(assert (= "B" (CharAt var49 106)))
(assert (= "B" (CharAt var9 701)))
(assert (= "%" (CharAt var23 97)))
(assert (= "z" (CharAt var59 714)))
(assert (= "Y" (CharAt var3 473)))
(assert (= "7" (CharAt var18 647)))
(assert (= "h" (CharAt var6 503)))
(assert (= "7" (CharAt var28 901)))
(assert (= "D" (CharAt var33 715)))
(assert (= ";" (CharAt var12 82)))
(assert (= "Z" (CharAt var0 78)))
(assert (= ">" (CharAt var43 552)))
(assert (= "," (CharAt var8 291)))
(assert (= "Z" (CharAt var44 875)))
(assert (= "K" (CharAt var11 770)))
(assert (= "k" (CharAt var13 821)))
(assert (= "~" (CharAt var34 67)))
(assert (= "Y" (CharAt var55 975)))
(assert (= "4" (CharAt var3 809)))
(assert (= "E" (CharAt var4 389)))
(assert (= "8" (CharAt var28 809)))
(assert (= "V" (CharAt var11 37)))
(assert (= "}" (CharAt var4 143)))
(assert (= "G" (CharAt var27 719)))
(assert (= "l" (CharAt var22 107)))
(assert (= "x" (CharAt var14 730)))
(assert (= "g" (CharAt var46 919)))
(assert (= "P" (CharAt var25 914)))
(assert (= "i" (CharAt var4 489)))
(assert (= "x" (CharAt var40 949)))
(assert (= "H" (CharAt var11 453)))
(assert (= "A" (CharAt var7 893)))
(assert (= "Q" (CharAt var51 34)))
(assert (= "D" (CharAt var52 645)))
(assert (= "`" (CharAt var21 365)))
(assert (= "B" (CharAt var37 260)))
(assert (= "^" (CharAt var29 40)))
(assert (= "p" (CharAt var46 310)))
(assert (= "O" (CharAt var31 257)))
(assert (= "q" (CharAt var25 508)))
(assert (= "D" (CharAt var4 918)))
(assert (= "f" (CharAt var49 715)))
(assert (= "|" (CharAt var28 315)))
(assert (= "|" (CharAt var56 608)))
(assert (= "U" (CharAt var56 921)))
(assert (= "t" (CharAt var27 110)))
(assert (= "`" (CharAt var52 910)))
(assert (= "t" (CharAt var11 122)))
(assert (= "/" (CharAt var6 856)))
(assert (= "G" (CharAt var17 212)))
(assert (= "|" (CharAt var55 297)))
(assert (= "X" (CharAt var42 474)))
(assert (= "p" (CharAt var22 392)))
(assert (= "J" (CharAt var10 278)))
(assert (= "\\" (CharAt var16 2)))
(assert (= "\"" (CharAt var34 464)))
(assert (= "9" (CharAt var45 36)))
(assert (= "1" (CharAt var15 271)))
(assert (= "q" (CharAt var3 411)))
(assert (= "Y" (CharAt var56 482)))
(assert (= "M" (CharAt var4 90)))
(assert (= "$" (CharAt var18 834)))
(assert (= "A" (CharAt var35 403)))
(assert (= "F" (CharAt var23 986)))
(assert (= "J" (CharAt var8 484)))
(assert (= "t" (CharAt var14 883)))
(assert (= "F" (CharAt var53 103)))
(assert (= ";" (CharAt var18 195)))
(assert (= "!" (CharAt var39 280)))
(assert (= "U" (CharAt var18 913)))
(assert (= ")" (CharAt var11 792)))
(assert (= "0" (CharAt var0 98)))
(assert (= "F" (CharAt var11 988)))
(assert (= "o" (CharAt var2 932)))
(assert (= "v" (CharAt var20 268)))
(assert (= "m" (CharAt var44 344)))
(assert (= "R" (CharAt var24 403)))
(assert (= "$" (CharAt var30 110)))
(assert (= "{" (CharAt var47 278)))
(assert (= "A" (CharAt var24 857)))
(assert (= "W" (CharAt var57 611)))
(assert (= "@" (CharAt var17 75)))
(assert (= ")" (CharAt var22 277)))
(assert (= "-" (CharAt var56 801)))
(assert (= "(" (CharAt var24 935)))
(assert (= "9" (CharAt var21 262)))
(assert (= "U" (CharAt var17 706)))
(assert (= "X" (CharAt var27 591)))
(assert (= "S" (CharAt var47 523)))
(assert (= "<" (CharAt var17 527)))
(assert (= "I" (CharAt var12 801)))
(assert (= "U" (CharAt var49 652)))
(assert (= "{" (CharAt var59 290)))
(assert (= "|" (CharAt var5 990)))
(assert (= "u" (CharAt var38 145)))
(assert (= "}" (CharAt var39 960)))
(assert (= "k" (CharAt var0 726)))
(assert (= "&" (CharAt var25 220)))
(assert (= "5" (CharAt var1 429)))
(assert (= "_" (CharAt var12 297)))
(assert (= "p" (CharAt var53 876)))
(assert (= "i" (CharAt var8 98)))
(assert (= "<" (CharAt var2 20)))
(assert (= "(" (CharAt var50 110)))
(assert (= "T" (CharAt var43 392)))
(assert (= "A" (CharAt var36 779)))
(assert (= "m" (CharAt var52 884)))
(assert (= ")" (CharAt var48 441)))
(assert (= "V" (CharAt var43 365)))
(assert (= "[" (CharAt var22 71)))
(assert (= "5" (CharAt var48 353)))
(assert (= "Q" (CharAt var55 474)))
(assert (= "f" (CharAt var32 769)))
(assert (= "," (CharAt var12 173)))
(assert (= "6" (CharAt var51 950)))
(assert (= "2" (CharAt var55 279)))
(assert (= "!" (CharAt var5 49)))
(assert (= "p" (CharAt var8 989)))
(assert (= "+" (CharAt var22 149)))
(assert (= "u" (CharAt var46 815)))
(assert (= ">" (CharAt var27 251)))
(assert (= "L" (CharAt var14 270)))
(assert (= "P" (CharAt var58 997)))
(assert (= "-" (CharAt var58 434)))
(assert (= "N" (CharAt var37 824)))
(assert (= "(" (CharAt var26 638)))
(assert (= "x" (CharAt var30 9)))
(assert (= "W" (CharAt var0 386)))
(assert (= "(" (CharAt var53 857)))
(assert (= "F" (CharAt var12 559)))
(assert (= "a" (CharAt var44 746)))
(assert (= "T" (CharAt var40 178)))
(assert (= ":" (CharAt var11 938)))
(assert (= "H" (CharAt var29 376)))
(assert (= "~" (CharAt var22 781)))
(assert (= "S" (CharAt var29 215)))
(assert (= "z" (CharAt var4 958)))
(assert (= "!" (CharAt var55 715)))
(check-sat)